(set-logic BV) (define-fun origCir ((n129 Bool) (n135 Bool) (n133 Bool) (n126 Bool)) Bool (and (not (and (and n135 n133) n129)) n126)) (synth-fun skel ((n129 Bool) (n135 Bool) (n133 Bool) (n126 Bool)) Bool) (declare-var n129 Bool) (declare-var n135 Bool) (declare-var n133 Bool) (declare-var n126 Bool) (constraint (= (origCir n129 n135 n133 n126) (skel n129 n135 n133 n126))) (check-synth)
